23 12 13 14 15 16 11 10 9 8 17 18 19 20 21 568 569 570 474 473 472 471 470 469 468 467 466 571 572 7 6 5 573 0 4 1 2 3 437 438 436 435 434 433 432 430 429 428 427 426 425 424 423 422 421 420 419 417 418 410 411 412 356 402 403 401 360 361 359 358 357 355 354 353 352 413 414 416 415 351 350 349 348 347 362 363 346 345 364 365 367 368 369 370 398 397 399 400 404 406 407 408 405 409 384 383 385 387 386 382 431 445 444 443 442 446 447 448 449 450 441 440 439 454 455 456 457 458 459 460 461 462 463 464 465 496 497 452 453 499 500 501 498 502 503 504 506 507 508 302 301 300 299 298 297 321 320 319 317 318 305 306 304 303 307 505 308 309 310 311 451 312 313 316 314 315 374 375 376 377 378 379 380 381 390 389 388 391 392 393 394 395 396 371 372 373 322 323 324 325 326 327 328 329 366 342 343 344 341 340 339 338 337 336 333 335 334 283 284 285 286 287 280 281 282 279 278 277 276 290 289 288 332 331 330 295 296 294 293 291 292 275 274 273 272 271 269 270 268 267 266 265 264 263 262 258 259 261 260 257 256 255 253 254 252 251 250 249 248 241 242 243 244 245 247 246 238 239 240 237 236 235 234 232 233 530 529 528 527 512 513 511 510 509 516 515 514 517 522 521 520 519 518 495 494 523 526 525 524 493 492 491 490 489 531 532 533 488 534 231 230 229 228 225 226 191 192 190 189 227 186 188 187 178 177 176 540 538 539 537 536 535 487 486 485 484 483 482 481 480 479 478 477 476 475 567 566 565 564 563 562 561 560 559 550 549 548 551 101 102 100 99 98 97 96 95 94 93 92 90 87 86 85 84 83 82 81 80 79 78 88 89 77 76 75 65 72 74 73 119 118 120 121 71 123 122 117 106 105 104 103 547 546 545 544 543 541 542 107 109 108 173 174 175 172 170 171 169 180 181 179 182 183 185 184 197 196 195 194 193 219 218 220 221 222 224 223 217 216 215 214 213 212 211 210 209 208 207 206 205 198 199 200 201 202 204 203 165 164 166 167 163 168 162 161 160 159 156 155 154 153 157 158 145 146 147 148 152 149 150 151 142 143 144 141 140 139 136 135 134 133 132 131 113 112 111 110 114 115 116 130 129 137 138 128 127 126 125 124 69 70 68 67 66 64 62 63 61 60 59 58 57 56 55 53 54 52 51 50 91 555 554 553 552 556 45 46 49 48 47 44 43 42 39 40 41 557 558 34 33 35 38 37 36 31 32 30 29 28 27 26 25 24 22